; benchmark generated from python API
(set-info :status unknown)
(declare-fun x_months () Int)
(declare-fun x_beta () Int)
(assert
 (<= (- 1202) x_months))
(assert
 (>= 1209 x_months))
(assert
 (>= x_beta 0))
(assert
 (let ((?x3910 (+ x_months 24003)))
 (let ((?x821 (- ?x3910 (* (div (- ?x3910 1) 12) 12))))
 (let ((?x533 (ite (or (= ?x821 4) (= ?x821 6) (= ?x821 9) (= ?x821 11)) 30 31)))
 (let (($x493 (and (= (mod (div (- ?x3910 1) 12) 4) 0) (and (distinct (mod (div (- ?x3910 1) 12) 100) 0) true))))
 (let ((?x3978 (ite (or $x493 (= (mod (div (- ?x3910 1) 12) 400) 0)) 29 28)))
 (< x_beta (ite (= ?x821 2) ?x3978 ?x533))))))))
(assert
 (let (($x2641 (and (= x_months (- (+ (* 2023 12) 1) 24003)) (<= 30 x_beta))))
 (or (> x_months (- (+ (* 2023 12) 1) 24003)) $x2641)))
(assert
 (let ((?x1163 (+ x_beta 1)))
(let ((?x4819 (+ (+ x_months 1) 24003)))
(let ((?x4410 (- ?x4819 (* (div (- ?x4819 1) 12) 12))))
(let ((?x3737 (ite (or (= ?x4410 4) (= ?x4410 6) (= ?x4410 9) (= ?x4410 11)) 30 31)))
(let (($x4162 (and (= (mod (div (- ?x4819 1) 12) 4) 0) (and (distinct (mod (div (- ?x4819 1) 12) 100) 0) true))))
(let (($x915 (or $x4162 (= (mod (div (- ?x4819 1) 12) 400) 0))))
(let ((?x4206 (ite (= ?x4410 2) (ite $x915 29 28) ?x3737)))
(let ((?x3060 (ite (> 1 ?x1163) 1 (ite (> ?x1163 ?x4206) ?x4206 ?x1163))))
(let ((?x3491 (ite (> 1 ?x3060) 1 (ite (> ?x3060 ?x4206) ?x4206 ?x3060))))
(let ((?x1823 (ite (= 2 ?x4410) (ite $x915 31 31) (ite (= 1 ?x4410) (ite $x915 0 0) 0))))
(let ((?x3440 (ite (= 4 ?x4410) (ite $x915 91 90) (ite (= 3 ?x4410) (ite $x915 60 59) ?x1823))))
(let ((?x1256 (ite (= 6 ?x4410) (ite $x915 152 151) (ite (= 5 ?x4410) (ite $x915 121 120) ?x3440))))
(let ((?x2074 (ite (= 8 ?x4410) (ite $x915 213 212) (ite (= 7 ?x4410) (ite $x915 182 181) ?x1256))))
(let ((?x1083 (ite (= 10 ?x4410) (ite $x915 274 273) (ite (= 9 ?x4410) (ite $x915 244 243) ?x2074))))
(let ((?x2684 (ite (= 12 ?x4410) (ite $x915 335 334) (ite (= 11 ?x4410) (ite $x915 305 304) ?x1083))))
(let ((?x1329 (+ (* 365 (- (div (- ?x4819 1) 12) 1)) (div (- (div (- ?x4819 1) 12) 1) 4))))
(let ((?x1820 (+ (- ?x1329 (div (- (div (- ?x4819 1) 12) 1) 100)) (div (- (div (- ?x4819 1) 12) 1) 400))))
(let ((?x3337 (+ (+ (- (+ (+ ?x1820 ?x2684) (- ?x3491 1)) 730179) 0) 730179)))
(let ((?x4990 (mod ?x3337 146097)))
(let ((?x3880 (div ?x4990 36524)))
(let ((?x1825 (ite (<= 4 ?x3880) 3 ?x3880)))
(let ((?x4754 (- ?x4990 (* ?x1825 36524))))
(let ((?x4627 (mod ?x4754 1461)))
(let ((?x2485 (div ?x4627 365)))
(let ((?x4369 (ite (<= 4 ?x2485) 3 ?x2485)))
(let ((?x1491 (+ (+ (* (div ?x3337 146097) 400) (* ?x1825 100)) (* (div ?x4754 1461) 4))))
(let ((?x4707 (+ (+ ?x1491 ?x4369) 1)))
(let (($x1290 (or (and (= (mod ?x4707 4) 0) (and (distinct (mod ?x4707 100) 0) true)) (= (mod ?x4707 400) 0))))
(let ((?x3850 (- ?x4627 (* ?x4369 365))))
(let ((?x2946 (ite $x1290 31 31)))
(let (($x2691 (>= ?x3850 ?x2946)))
(let ((?x543 (ite $x2691 (+ (- ?x3850 ?x2946) 1) (+ (- ?x3850 (ite $x1290 0 0)) 1))))
(let ((?x862 (ite $x1290 60 59)))
(let (($x1871 (>= ?x3850 ?x862)))
(let ((?x3632 (ite $x1290 91 90)))
(let (($x4127 (>= ?x3850 ?x3632)))
(let ((?x820 (ite $x4127 (+ (- ?x3850 ?x3632) 1) (ite $x1871 (+ (- ?x3850 ?x862) 1) ?x543))))
(let ((?x1611 (ite $x1290 121 120)))
(let (($x2643 (>= ?x3850 ?x1611)))
(let ((?x1230 (ite $x1290 152 151)))
(let (($x1098 (>= ?x3850 ?x1230)))
(let ((?x3908 (ite $x1098 (+ (- ?x3850 ?x1230) 1) (ite $x2643 (+ (- ?x3850 ?x1611) 1) ?x820))))
(let ((?x4135 (ite $x1290 182 181)))
(let (($x5111 (>= ?x3850 ?x4135)))
(let ((?x2908 (ite $x1290 213 212)))
(let (($x4149 (>= ?x3850 ?x2908)))
(let ((?x1385 (ite $x4149 (+ (- ?x3850 ?x2908) 1) (ite $x5111 (+ (- ?x3850 ?x4135) 1) ?x3908))))
(let ((?x1694 (ite $x1290 244 243)))
(let (($x1048 (>= ?x3850 ?x1694)))
(let ((?x1686 (ite $x1290 274 273)))
(let (($x3572 (>= ?x3850 ?x1686)))
(let ((?x3272 (ite $x3572 (+ (- ?x3850 ?x1686) 1) (ite $x1048 (+ (- ?x3850 ?x1694) 1) ?x1385))))
(let ((?x2784 (ite $x1290 305 304)))
(let (($x998 (>= ?x3850 ?x2784)))
(let ((?x2444 (ite $x1290 335 334)))
(let (($x4579 (>= ?x3850 ?x2444)))
(let ((?x1888 (ite $x4579 (+ (- ?x3850 ?x2444) 1) (ite $x998 (+ (- ?x3850 ?x2784) 1) ?x3272))))
(let (($x879 (= 0 0)))
(let ((?x1941 (- (+ (* 2023 12) 3) 24003)))
(let ((?x3976 (ite $x2643 5 (ite $x4127 4 (ite $x1871 3 (ite $x2691 2 1))))))
(let ((?x1479 (ite $x1048 9 (ite $x4149 8 (ite $x5111 7 (ite $x1098 6 ?x3976))))))
(let ((?x4101 (+ (* (ite $x879 (div (- ?x4819 1) 12) ?x4707) 12) (ite $x879 ?x4410 (ite $x4579 12 (ite $x998 11 (ite $x3572 10 ?x1479)))))))
(let ((?x398 (- ?x4101 24003)))
(or (< ?x398 ?x1941) (and (= ?x398 ?x1941) (>= 0 (- (ite $x879 ?x3491 ?x1888) 1))))))))))))))))))))))))))))))))))))))))))))))))))))))))))))))))))))
(check-sat)
